p cnf 150 30
x -3 4 5 7 -8 11 -16 -20 -26 28 30 32 33 34 40 41 -43 -45 47 49 -52 -53 55 56 57 -60 61 -62 63 -64 -65 -68 70 -71 73 74 75 -76 -78 84 85 86 87 88 94 -95 -96 102 104 107 -109 -111 114 115 -117 -118 -122 127 128 130 -137 138 140 -142 144 145 -146 -150 0
x -2 -3 6 -7 -9 10 -14 -18 19 20 21 23 -24 26 28 -29 30 31 -33 36 -38 39 40 43 46 47 48 50 51 -52 -59 -60 -62 -66 -68 69 71 -73 75 76 79 -80 -81 82 -83 84 88 89 -93 -94 96 -99 101 102 -104 105 106 -113 115 -117 -118 121 -122 123 -126 127 130 -133 134 137 -139 141 -148 150 0
x 2 -3 -5 8 -13 15 -17 -18 20 -23 -25 -29 -30 -31 32 34 35 36 37 -38 39 -41 -42 -48 -49 -53 -54 55 56 59 62 63 -64 -67 -68 69 -70 -71 73 -80 87 -88 94 95 -97 100 101 -102 -103 -104 105 108 110 -111 112 -114 -116 117 -118 -119 120 -123 125 128 -131 137 -141 146 -147 -148 -150 0
x 2 -3 5 6 7 -9 -13 -14 16 17 -18 19 -20 -21 22 26 -27 30 31 34 36 -40 -42 -43 -44 -47 48 -50 -52 55 58 59 -60 61 62 -65 67 68 72 -73 74 -76 77 79 81 83 -84 -88 93 -97 98 99 -100 -101 -104 -108 -110 112 114 -115 -120 -122 124 125 126 127 128 -129 133 146 -149 150 0
x -3 -4 5 9 14 -15 -18 -19 -20 21 22 -25 -26 -27 28 32 36 39 40 41 -44 47 -50 -51 -52 -53 -54 56 -57 -62 64 65 66 -68 -69 -72 73 74 75 76 -78 -79 -81 -87 -88 -90 95 -96 -98 102 107 -108 110 -111 -113 114 -115 -117 -120 122 123 -124 127 128 129 -132 134 -135 -139 -141 -144 -145 -146 148 0
x -1 -2 3 4 5 10 12 -14 -18 19 25 -26 33 -37 40 -44 46 47 -48 -49 -51 54 57 -58 60 -62 -63 -67 70 -71 72 -73 74 75 -76 77 82 -83 84 -86 87 89 92 -93 97 98 99 100 -101 -105 -107 -109 116 -117 -118 -119 120 -121 -127 129 -131 -133 134 137 -138 140 -144 -146 147 -148 149 -150 0
x -4 -8 -9 11 -13 -17 -19 22 23 -25 26 28 -31 32 34 36 42 -44 45 -47 48 51 52 56 60 62 65 66 -69 71 74 76 77 -78 80 81 82 83 -85 87 88 -89 90 91 96 97 -99 -102 -105 106 -108 -112 -113 -114 -115 -117 122 -123 124 -125 -130 -131 132 -140 141 142 143 145 147 150 0
x 1 3 -4 5 -7 11 -12 13 14 16 -17 18 24 25 -26 -27 -28 -30 -32 -34 36 37 -38 39 40 43 46 50 -51 -52 -56 59 61 -64 -65 70 -73 74 76 84 -85 86 87 88 -89 90 92 93 95 -96 97 99 -103 104 105 -108 -109 112 116 117 -119 120 -123 -125 126 127 128 -132 -134 -135 136 -137 140 -141 144 145 -146 147 -148 -149 0
x -2 -6 -7 -8 11 12 16 -18 -21 24 -28 29 31 -32 33 36 -39 40 42 -43 45 46 -48 -53 -58 59 60 -61 62 -63 -64 -65 -68 -72 -73 78 79 -81 83 -84 -85 -87 88 -91 -92 93 99 -100 -101 -102 -103 107 113 114 -117 -118 -120 -124 125 130 132 -133 -134 136 137 139 -140 142 -143 144 145 -146 150 0
x 2 -5 8 -9 -11 12 13 16 -17 -18 -20 21 -25 -26 -30 33 -36 -37 -39 40 42 -44 45 -46 -47 48 49 51 52 -54 -55 56 58 59 61 62 -63 -65 -66 -67 71 73 74 -75 77 78 -79 84 -89 -90 92 -93 95 -97 -98 -99 100 103 -104 -105 106 -107 108 -109 -115 -116 117 121 122 123 124 125 127 128 -129 131 -133 -136 137 -139 140 -141 143 146 147 -149 150 0
x -1 3 -4 5 7 14 -15 19 20 21 -22 -24 25 27 -28 31 -33 35 36 37 38 -39 -42 43 46 -47 49 -50 -52 -53 -54 -55 -58 -59 60 -63 -64 -67 -68 70 71 72 73 -75 -79 -80 82 -84 -85 86 87 -90 91 94 95 -96 -100 102 103 -104 105 -106 107 -109 116 117 118 121 124 -125 126 -128 133 -134 -136 -137 -138 143 144 146 0
x 2 3 5 -6 -7 8 -9 10 -14 -16 -20 22 -24 -29 -33 -35 -37 38 -40 42 43 -44 50 -52 53 55 58 59 -60 -61 64 -65 66 -67 68 -73 -74 75 -76 -77 -79 80 -84 85 86 88 -89 -92 -93 94 -95 -99 -100 101 -102 -104 105 107 -109 -115 118 120 121 122 -123 124 125 -128 130 131 133 135 -136 138 143 144 146 -148 -149 -150 0
x 1 4 5 9 -10 -13 16 -17 -20 21 -24 -30 32 40 -41 -44 -48 -49 52 55 56 60 -63 -64 -65 -67 72 76 77 78 -80 81 -83 84 -88 92 -95 -98 -100 -101 -102 109 110 -112 -114 120 121 -124 125 -129 -133 134 136 -137 -142 -144 147 -150 0
x 3 -5 -6 7 -13 16 -17 -20 21 22 24 25 30 -32 34 35 -37 38 -39 -40 -45 52 -55 56 -57 -59 62 -63 -64 -67 68 -72 75 76 77 79 -80 88 -92 97 -99 101 -103 -107 -110 -113 -120 -121 -126 127 130 131 -132 133 -134 135 -136 -138 140 142 143 -144 -147 0
x -2 -3 -5 -8 -9 -10 14 -16 17 18 -21 23 25 -27 34 35 -36 37 -38 -39 42 44 46 -49 52 54 -56 -58 59 -65 -66 68 -69 70 -71 -73 74 -75 76 81 -82 84 -87 -88 -90 -95 -96 97 98 -102 -103 104 107 -113 -114 -115 -116 117 -120 -127 128 -129 130 131 -133 -134 137 139 141 145 -148 149 0
x -3 4 -7 -8 -9 -10 -11 -12 13 14 -17 -18 19 -20 24 25 -29 -31 -33 -35 37 38 -39 -42 -43 -44 45 -46 -48 -49 -53 60 61 62 -63 65 67 -68 69 -71 -73 -74 -75 77 -78 -79 -80 -82 84 87 -89 90 -92 -93 -94 98 -102 105 106 -109 110 115 -116 118 -119 -124 125 126 -131 -132 137 -139 141 144 -145 -146 -147 -148 -150 0
x -3 4 8 -10 -15 -17 18 19 -21 22 -23 -29 30 33 -34 -36 -38 -39 -41 -44 -45 -46 -47 48 50 -52 -55 56 -57 -59 -60 -62 63 -65 69 -73 76 77 78 -79 -80 83 84 86 88 89 92 96 107 -108 109 -110 111 112 -113 -115 -116 -118 -119 -121 126 127 -133 136 139 -143 144 148 149 -150 0
x 1 3 4 6 7 -10 11 -12 15 17 19 20 -23 24 -25 -26 27 28 -32 33 37 40 -45 -47 48 49 53 -56 -58 -59 61 -65 66 67 -69 -73 -74 75 -76 77 -78 -79 81 -85 -88 89 -90 -97 98 99 -100 102 103 -107 110 -112 -113 114 -116 117 130 -133 135 136 138 139 141 142 -144 146 0
x 1 -3 -7 -9 11 -13 16 -17 -19 21 -22 31 33 -35 -39 40 -41 42 46 -47 -48 -49 53 -54 -56 -59 -64 -65 66 68 70 -71 75 -76 -77 -79 81 83 -84 -85 86 88 89 -91 92 95 -96 97 99 -101 102 -103 105 -106 -108 109 111 -112 113 -114 -118 123 -124 125 -128 129 -130 131 132 -133 -135 136 -137 -141 142 -143 -145 -146 147 -148 149 -150 0
x -1 -2 3 -6 7 8 11 -13 -14 -15 18 -20 21 23 -25 26 28 -29 30 -31 -32 34 -35 36 -37 -41 -43 -44 -45 46 47 49 -50 -51 52 -53 -54 55 56 57 58 -59 -62 -64 -66 69 72 73 -75 -76 78 79 84 85 86 91 -92 -93 -94 96 98 -101 102 -103 105 106 109 111 -112 113 114 115 117 118 -119 -122 -124 125 -126 129 130 132 -133 136 -138 142 145 -146 -150 0
x -1 -3 8 11 12 16 17 18 19 20 23 -25 -26 -27 31 33 -35 37 38 41 -42 -45 -47 -50 -51 52 53 -55 -56 59 60 -61 63 64 65 -67 69 -74 75 -76 -77 -78 -79 -80 89 -92 -94 -96 105 -108 -109 110 111 -112 113 -116 118 -119 122 123 125 -127 -131 132 -135 -136 137 -138 -139 -140 -141 -142 143 144 146 147 0
x 1 2 4 6 -10 11 -12 17 -20 22 23 -24 -28 -29 31 32 -33 -36 -38 -40 43 -45 47 49 50 -51 52 53 -58 68 70 73 75 -76 78 79 80 81 -82 -85 -87 89 -92 -93 -95 -97 -98 99 100 -101 -102 -103 105 -107 110 -111 -114 116 121 124 -125 -128 129 -132 -133 -136 -137 -139 -141 -142 143 144 -145 149 150 0
x -1 2 -3 4 -5 7 8 11 13 14 16 -19 -20 -22 23 25 26 -28 -29 30 -31 -33 34 35 -36 37 -39 40 43 -45 -49 51 52 54 55 56 60 62 63 65 66 71 -72 73 -74 -76 80 82 84 -87 88 -90 -92 93 -95 -96 -97 98 -99 101 -103 -107 -108 109 111 113 117 118 119 -120 -121 122 -124 125 126 129 130 135 136 138 -142 -144 -145 -148 0
x -2 4 6 -7 10 -17 18 21 -23 24 -25 26 28 31 36 40 -41 -45 46 49 51 -52 -55 -56 57 -67 -71 74 76 -77 82 83 -85 -86 88 89 -91 -93 94 -95 98 -101 -104 -108 109 -111 112 114 115 116 -118 -120 122 -124 -125 -127 -130 131 132 -133 -134 135 136 -137 -138 -139 140 144 145 147 -150 0
x 3 -5 -6 9 -10 -11 12 13 -14 -19 24 -25 -28 29 30 31 -32 -36 -37 -38 -39 -41 -42 45 46 48 -49 51 -52 -56 -60 61 -64 65 -66 67 -69 -72 73 -74 75 -76 77 80 -84 87 -88 89 91 -94 -97 101 103 -107 -108 111 113 115 -118 119 121 126 -128 129 130 -132 -134 -137 -139 140 -143 144 146 -147 148 -150 0
x -1 -2 5 -6 -7 -8 -9 -10 -11 -14 -16 17 -19 20 21 -24 -25 26 -27 28 -30 -32 -34 -35 37 39 -40 41 43 -44 -47 48 49 53 54 55 -56 -58 -65 -68 -69 71 74 75 76 -82 -83 -84 -85 86 -87 -88 89 91 92 -93 -94 -95 96 -102 -108 -111 -115 118 120 122 123 127 129 131 -132 -134 135 -136 -137 139 147 0
x -3 5 -6 -12 -13 14 -15 -17 18 19 -22 23 -24 25 -26 -27 -28 -35 -36 -37 38 -39 43 44 46 49 51 -53 -56 -59 61 -64 -69 70 78 79 -83 84 -86 -89 90 92 -97 -100 102 -103 106 107 108 -109 -111 -113 114 -115 -116 -117 -118 -119 123 -124 -125 -126 128 129 -130 -133 138 139 -140 -143 145 -146 147 -148 -150 0
x 1 2 -4 6 8 -9 -12 -13 15 -18 19 -21 24 25 -29 33 -36 -38 -43 -45 48 49 -51 53 54 -55 59 -60 63 -65 -68 74 -75 -76 77 -78 80 -82 -84 -86 89 92 -94 96 97 -99 -100 -103 -104 -107 -109 -112 113 -115 -116 -119 121 -122 -125 -127 128 -130 -131 -133 143 145 146 147 -148 -150 0
x 1 2 -5 -9 -14 21 23 25 26 -27 28 -32 -33 -34 37 39 40 43 44 -45 48 49 53 57 58 -59 67 68 -74 -76 77 78 79 80 81 -82 -83 85 -89 -98 -100 -101 104 105 106 107 -108 111 -113 117 119 -120 -122 123 126 129 -132 -133 137 138 -141 143 -148 0
x -6 9 10 -11 13 19 -20 -21 24 -25 31 35 -37 38 41 -42 -46 47 -48 51 -52 54 -55 57 58 -61 63 -64 67 -68 -70 71 74 75 -76 -78 -80 -82 83 84 87 88 -93 96 99 101 103 104 107 -109 110 -113 -114 116 117 -121 -123 125 128 129 130 -132 -134 135 137 138 -141 142 -146 -148 -150 0
g -30